!File created by the GAMESS Input Deck Generator Plugin for Avogadro
 $BASIS GBASIS=STO NGAUSS=3 $END
 $CONTRL SCFTYP=RHF RUNTYP=SADPOINT $END
 $STATPT hssend=.t. OPTTOL=0.0005 NSTEP=50 $END
 $STATPT HESS=calc ihrep=5 $END
 $FORCE nvib=2 $END
 $ZMAT DLC=.t. auto=.t. nonvdw(1)=1,6,3,4,4,5,6,1,2,2,3 $END
!$ZMAT IFZMAT(1)=1,1,6,1,3,4 fvalue(1)=2.00,2.00 $END

 $DATA 
Title
C1
C     6.0     3.91473436    -1.31871045    -3.27625751
C     6.0     3.01427460    -1.35218608    -2.20537496
C     6.0     2.95003986    -0.26907459    -1.32108808
C     6.0     4.76461840    -0.12447204    -0.49259835
C     6.0     5.51780796    -1.14635694    -1.08343065
C     6.0     5.72562885    -1.06045091    -2.46757770
C     6.0     6.03522968     0.32009995    -2.98598194
C     6.0     5.75899839     1.40310693    -2.28797364
C     6.0     5.09460115     1.30824411    -0.93376821
O     8.0     4.83471012     2.28702593    -0.24658875
H     1.0     4.02570629    -2.21977520    -3.87049913
H     1.0     3.95183778    -0.41630921    -3.87413359
H     1.0     2.74996495    -2.32678604    -1.81161046
H     1.0     2.93382788     0.72572422    -1.75026822
H     1.0     2.30887532    -0.35869071    -0.45073286
H     1.0     4.54169512    -0.20512311     0.56739086
H     1.0     5.55529213    -2.11750007    -0.60518461
H     1.0     6.28491974    -1.85708976    -2.94846630
H     1.0     6.50022745     0.38529244    -3.96364045
H     1.0     6.00714922     2.39542818    -2.64098215
 $END
