!File created by the GAMESS Input Deck Generator Plugin for Avogadro
 $BASIS GBASIS=STO NGAUSS=3 $END
 $CONTRL SCFTYP=RHF RUNTYP=IRC NZVAR=1 MULT=1 ICHARG=0 $END
 $STATPT  HESS=READ ihrep=5 $END
 $FORCE NVIB=2 $END
 $STATPT OPTTOL=0.0005 NSTEP=50 hssend=.t. $END
 $ZMAT DLC=.T. AUTO=.T. NONVDW(1)=1,6,3,4 $END
 $irc npoint=100 saddle=.t. tsengy=.t. forwrd=.t. opttol=0.0005 stride=0.1 $end

 $DATA 
Title
C1
C     6.0     3.94575429    -1.32235384    -3.26269293
C     6.0     3.01813674    -1.34701550    -2.20636821
C     6.0     2.97997212    -0.26471829    -1.31158113
C     6.0     4.73142385    -0.12977125    -0.50694889
C     6.0     5.51344156    -1.14357781    -1.08636141
C     6.0     5.69314337    -1.06323647    -2.48039198
C     6.0     6.01861048     0.32289714    -2.99097204
C     6.0     5.75322151     1.40370643    -2.28737926
C     6.0     5.08783388     1.30625582    -0.93299592
O     8.0     4.84791470     2.28004503    -0.23320767
H     1.0     4.04431057    -2.22785139    -3.85305333
H     1.0     3.96623158    -0.43097827    -3.87875414
H     1.0     2.74619341    -2.31963563    -1.81265330
H     1.0     2.95112729     0.72726798    -1.74776220
H     1.0     2.32426620    -0.35013139    -0.45132503
H     1.0     4.52067900    -0.20866728     0.55607355
H     1.0     5.56126642    -2.11273551    -0.60510767
H     1.0     6.27088881    -1.85093188    -2.95534897
H     1.0     6.48451900     0.38799152    -3.96826196
H     1.0     6.01120472     2.39583731    -2.63367414
 $END

$ HESS
ENERGY IS -416.0940647043 E (NUC) IS 511.4290558757
 1 1 1.60896983E-01-4.13610345E-02-2.45311876E-01-1.36775877E-01-8.89586480E-02
 1 2 6.85476316E-02 1.06623693E-01 9.31376298E-02 1.17103052E-01-1.56179462E-01
 1 3 5.70893683E-02-9.11709735E-03 3.80235209E-02-6.69383800E-02-1.75306402E-01
 1 4 1.27891378E-01 3.97827921E-02 1.89401227E-01-3.23898426E-02-3.11329682E-02
 1 5-9.94105646E-03-7.40451128E-03 9.20314716E-03 3.99662881E-03 1.13454494E-02
 1 6-7.48626611E-04 6.19384063E-03-2.27595789E-03 3.33440243E-03-1.06466560E-03
 1 7-5.05600182E-02 3.16432880E-02 3.62098821E-02-2.41074764E-02 4.70893123E-04
 1 8 3.14311102E-02-9.71077932E-04 5.78769905E-03 4.60445174E-03-2.06757667E-02
 1 9-3.26156957E-03-7.09313510E-03-1.04150563E-03-5.70702856E-04-1.85688471E-03
 1 10 7.59665686E-03 1.97821657E-03 1.43864075E-03 2.90517832E-04-1.27355861E-03
 1 11 1.68818440E-03-2.52494485E-02-8.36910595E-03-1.28352974E-02 1.54630575E-03
 1 12 3.46296692E-04 4.69056634E-04 3.41254748E-03-1.57145126E-04 1.44220244E-03
 2 1-4.13610345E-02 8.96997193E-01 4.81107479E-03 4.63304853E-03-1.64371769E-01
 2 2-1.42909466E-02 3.89782085E-02 1.83153977E-02-1.97619922E-02-1.80409521E-02
 2 3 6.20019414E-03-4.32186239E-03 7.59244463E-03-6.71736526E-03-1.82020657E-02
 2 4 2.07818110E-02-4.11865482E-02 2.06085837E-02-1.89855913E-02-8.71869422E-03
 2 5-7.37180837E-03-1.18298311E-03 1.42345777E-05 6.43995526E-05 1.70880713E-04
 2 6-1.01693599E-03 1.47827889E-03 2.38016243E-04 5.37351559E-04-3.40923750E-04
 2 7 2.33236479E-02-3.58112034E-01-1.75387186E-01 6.05421266E-03-3.48796586E-01
 2 8 1.84529505E-01-2.69201279E-02 7.25587105E-03 2.99115726E-02-1.38844116E-03
 2 9 1.97305068E-03 5.45420825E-04-3.67815576E-03-5.08237066E-03-5.93497426E-03
 2 10 1.00133780E-04 2.50864733E-04 2.35089309E-04-9.21807870E-04 1.02198419E-05
 2 11-3.35823513E-04 8.81485953E-03 1.94631336E-03 3.01971846E-03 6.64165163E-04
 2 12 9.35701828E-05 5.02759201E-04 1.12719165E-03 4.08547144E-04 2.41373692E-04
 3 1-2.45311876E-01 4.81107479E-03 8.28821306E-01 2.05532755E-01 3.40699719E-02
 3 2-3.34300815E-01 2.06081578E-03-1.73760532E-02-4.13256952E-02 2.22196364E-02
 3 3-6.14623260E-03-6.54399548E-04-1.05922728E-02-2.83357962E-03-5.16564535E-03
 3 4-1.16673331E-02-1.83461149E-03-4.68898520E-02-1.27169844E-03-6.53108126E-03
 3 5 9.89383899E-04-1.23193423E-03 1.66408721E-03 1.39021884E-03-1.82412613E-03
 3 6 3.69423953E-04-4.00294029E-03-1.90990296E-04 6.37899853E-04 1.32604099E-03
 3 7 1.96777930E-02-1.72997412E-01-1.92792679E-01 3.81459863E-03 1.75883069E-01
 3 8-2.03162875E-01 1.34739631E-02-8.75893253E-03-7.17235458E-03-1.10970969E-03
 3 9-8.13476806E-04 3.79361844E-04 3.92022602E-03-4.51917257E-03-6.89991682E-05
 3 10-1.99286074E-03 3.70344560E-04 1.00686621E-03-7.61153874E-04 1.95833211E-03
 3 11-6.32366202E-04 5.28087300E-03 1.15698431E-03 1.99119241E-03 1.07472265E-04
 3 12 9.47728038E-04-1.55364344E-04-1.34344880E-04-5.72724610E-05 4.20567915E-04
 4 1-1.36775877E-01 4.63304853E-03 2.05532755E-01 4.22476237E-01 1.15024653E-01
 4 2-2.40724219E-01-1.16490052E-01-2.13370909E-02 1.14462213E-02 3.62418720E-02
 4 3-1.64030792E-02 4.21160971E-04-5.67612813E-02 9.31789730E-03 4.03750440E-02
 4 4-8.50675314E-02-1.47205751E-02-7.55050054E-02 6.82759612E-03 5.85007903E-03
 4 5 1.79930774E-03 2.08763248E-03-2.31581316E-03-4.02962239E-04-2.58876587E-03
 4 6-2.62934864E-04-2.63757982E-03 2.06368591E-04-1.74091942E-03 4.44235747E-04
 4 7-3.76894771E-04-4.41073909E-03-6.58180565E-03-1.19524438E-02-8.07014851E-04
 4 8-9.66409954E-03-7.83480983E-02-9.50999581E-02 5.28214681E-02 8.52443602E-03
 4 9 5.61545189E-04 6.31701801E-05 8.15340529E-03 2.37407375E-02 1.88264440E-02
 4 10-2.09159737E-03-1.05204124E-03-9.83036265E-04 3.13805637E-03-2.32900803E-03
 4 11 2.49641161E-03 4.40609361E-03 1.36927262E-03 2.63234281E-03-4.43243692E-04
 4 12-1.14823520E-04-1.14026615E-06-1.16474587E-03 9.47541132E-05-3.59379098E-04
 5 1-8.89586480E-02-1.64371769E-01 3.40699719E-02 1.15024653E-01 8.85602385E-01
 5 2 2.79529035E-03 7.40031876E-02-3.44639382E-01-1.29162153E-01-9.39453886E-02
 5 3 2.20983823E-02-1.37198438E-02 3.45381250E-02-2.14090509E-02-5.23823521E-02
 5 4 4.80554047E-02 8.32473837E-03 4.90741209E-02-4.72210764E-03-4.61080698E-03
 5 5-1.74119085E-04-2.26309275E-03 1.94780086E-03 1.10775010E-04 6.39386568E-03
 5 6 1.58638514E-03 3.79932253E-03-1.09784256E-03 7.91851831E-04-1.07527392E-03
 5 7 3.12975146E-02 8.40023346E-03-2.44008399E-02-2.20097047E-02 9.43640535E-03
 5 8 2.98141401E-02-7.61632114E-02-3.89959486E-01 1.30389146E-01-1.66448801E-02
 5 9-2.22232805E-02-3.57098903E-02-7.26226901E-03 9.64101448E-03 5.55526093E-03
 5 10 5.41357334E-03 9.52070408E-04 9.37406462E-04-3.97137907E-05-7.39719113E-04
 5 11 4.74812836E-04-2.77547331E-03-5.64174919E-04-7.12680570E-04 3.42291280E-04
 5 12-1.99809347E-04 4.17544079E-05 8.12700934E-04-6.33602920E-05 2.74537216E-04
 6 1 6.85476316E-02-1.42909466E-02-3.34300815E-01-2.40724219E-01 2.79529035E-03
 6 2 6.63814127E-01 1.43005121E-01-9.39803585E-02-1.73379048E-01-1.56976043E-01
 6 3 3.04886053E-02-2.74594236E-02 2.68145319E-02-5.95958094E-02-1.04669014E-01
 6 4 9.56355453E-02 1.79905510E-02 1.08656847E-01-9.52440155E-03-6.04323732E-03
 6 5-2.33619742E-03-3.34670530E-03 2.19994129E-03 7.37622519E-04 9.12188848E-03
 6 6 5.48285594E-03 5.46537588E-03-8.91602677E-04 1.69005267E-04-1.65931314E-03
 6 7 2.23785732E-02 6.63255089E-03-6.35810157E-03 3.62821410E-02 1.09227808E-03
 6 8 1.71056945E-04 4.41476017E-02 1.20852472E-01-1.24227719E-01-2.06336537E-02
 6 9 1.46285890E-02 1.14891626E-02-1.56149831E-02-2.55065552E-02-1.64639881E-02
 6 10 6.09157994E-03 1.17314721E-03 1.73680684E-03 2.02548456E-03-4.45282604E-04
 6 11 1.52202850E-03-8.31764516E-03-2.91120334E-03-3.55790110E-03 5.71272083E-04
 6 12-6.41901230E-04 4.17029714E-04 1.40572980E-03-8.93178980E-05 4.01408139E-04
 7 1 1.06623693E-01 3.89782085E-02 2.06081578E-03-1.16490052E-01 7.40031876E-02
 7 2 1.43005121E-01 3.11129767E-01-8.52933792E-02-3.68025745E-01 1.21512823E-01
 7 3-3.97801553E-02 1.64965328E-02-8.42458920E-02 6.02939862E-02 9.06151263E-02
 7 4-6.06605880E-02-5.64072309E-03-8.54626435E-02 7.02048078E-03 1.72921826E-03
 7 5 8.12762293E-04 3.59183352E-03-4.03254872E-04 1.14758772E-03-2.71179182E-02
 7 6-2.44222457E-02-1.28749808E-02 5.94767573E-04 5.56670705E-03 4.76737703E-03
 7 7-2.82412682E-03-6.11647999E-04 5.75734462E-03-1.44285915E-02-4.08414273E-03
 7 8-6.81801183E-03 3.64174790E-03-6.33534550E-03-5.21727649E-03-4.29467275E-02
 7 9 6.99935280E-03 1.82645299E-02-1.98960212E-01-2.14690873E-02 1.97600795E-01
 7 10-9.20130500E-03-1.13232077E-03-9.31609612E-04-9.83794037E-04-6.17308065E-04
 7 11-1.15671216E-03 5.44230031E-03 1.73874014E-03 1.28609182E-03-8.91076156E-04
 7 12 3.65098121E-04-4.09526857E-04-8.04985140E-04 1.14489752E-04-9.17846310E-04
 8 1 9.31376298E-02 1.83153977E-02-1.73760532E-02-2.13370909E-02-3.44639382E-01
 8 2-9.39803585E-02-8.52933792E-02 8.80072033E-01-3.72540532E-02 9.95402993E-02
 8 3-6.23346647E-02 1.85710757E-02-3.27653837E-02 3.45216133E-02 5.43054239E-02
 8 4-4.97115713E-02-9.54553594E-03-6.68612933E-02 6.73208972E-03 4.40287931E-03
 8 5 3.16012190E-03 4.59531141E-03-1.18598453E-03 1.57395708E-04-2.13318806E-02
 8 6-9.28945222E-03-1.39971657E-02 4.65554733E-04-1.33996153E-03 3.23257378E-03
 8 7-5.55650472E-03 4.55237731E-04-1.58818822E-03-6.46556064E-03-6.44371618E-04
 8 8-4.27981014E-03 1.25869716E-03-1.92818279E-02-3.41027888E-02 3.24329769E-02
 8 9-4.01510488E-01 1.55001036E-01-1.31852052E-02-8.73547669E-02 3.23636746E-02
 8 10-3.55058020E-03-5.98986813E-04-2.32143387E-04-5.31879253E-04-2.02284474E-03
 8 11 7.21499042E-04 3.79489763E-03 1.77811614E-03 2.79161747E-03-6.25359046E-04
 8 12 1.53468085E-04-1.92011575E-04-1.60146223E-03 4.76568249E-05-4.41161609E-04
 9 1 1.17103052E-01-1.97619922E-02-4.13256952E-02 1.14462213E-02-1.29162153E-01
 9 2-1.73379048E-01-3.68025745E-01-3.72540532E-02 7.00299380E-01 1.50815237E-01
 9 3-3.12902237E-02-2.73751019E-02-6.34227968E-02 5.18752704E-02 7.98488168E-02
 9 4-5.80262030E-02-1.19555655E-02-9.13987402E-02 7.62781230E-03-4.12547639E-05
 9 5 3.32266990E-03 1.58197157E-03-1.43409710E-03 3.27549904E-04-1.10638093E-02
 9 6-9.70480872E-03-5.03611849E-03-4.42386760E-04 9.67762702E-04 2.53216689E-03
 9 7 4.34659332E-03 8.45400129E-04-3.32999161E-03-1.38030726E-02-3.32325425E-03
 9 8-4.29293045E-03-1.72966658E-03 1.73626192E-02 1.24625011E-02 2.79764665E-02
 9 9 1.47257673E-01-1.35467803E-01 2.14634917E-01 2.85885307E-02-3.13921550E-01
 9 10-2.36338146E-02-3.99926022E-03-6.87720182E-03 5.53349250E-04-1.96421402E-03
 9 11 6.99548785E-04 5.87108556E-03 2.83498610E-03 3.44954524E-03-7.83971815E-04
 9 12 1.74638319E-04-2.86130870E-04-1.02317225E-03-1.78366131E-05-2.53123627E-04
10 1-1.56179462E-01-1.80409521E-02 2.22196364E-02 3.62418720E-02-9.39453886E-02
10 2-1.56976043E-01 1.21512823E-01 9.95402993E-02 1.50815237E-01 1.75497865E-01
10 3-6.73156796E-02-2.54182917E-01-1.00296865E-01 9.20698993E-02-1.29411205E-02
10 4 7.42246323E-02 1.25799387E-02 1.38931939E-01-1.45384545E-02 7.28135583E-03
10 5-8.17159812E-03 7.99509086E-03-1.50724629E-02 4.05050522E-03-7.94862886E-02
10 6-2.13401145E-02 4.66217685E-02 2.07423359E-02 6.18560866E-03-6.61606601E-03
10 7 4.77919606E-03-8.24248872E-04 2.73037676E-03 1.43587021E-02 3.86957609E-03
10 8 7.02387435E-03 6.98663620E-04 1.54190505E-03 5.84582136E-04-3.01749277E-02
10 9-2.98519077E-03-1.10761058E-02-2.14831140E-02 1.60222299E-03-1.53668683E-02
10 10-5.94418682E-02-8.03546024E-05 8.93026620E-02 5.89752252E-03-3.88306939E-03
10 11 1.85664890E-03-2.01783127E-03-1.39551379E-03-1.53370988E-03 2.58388070E-04
10 12-1.86620578E-04-4.41131320E-04 1.41000793E-03 4.00374929E-04 3.16969605E-03
11 1 5.70893683E-02 6.20019414E-03-6.14623260E-03-1.64030792E-02 2.20983823E-02
11 2 3.04886053E-02-3.97801553E-02-6.23346647E-02-3.12902237E-02-6.73156796E-02
11 3 7.32006948E-01 5.40559597E-02 1.24797197E-01-3.19558163E-01-4.39137583E-02
11 4-3.58566807E-02 6.46636638E-03-5.93294024E-02 2.70582291E-03-3.41185239E-03
11 5-5.58715897E-04-3.64619210E-03-1.30773556E-03 2.85531332E-03-5.64429849E-02
11 6-2.20139122E-01 4.64285476E-02-2.91895755E-03-6.64844183E-02-7.66542663E-03
11 7-2.75378493E-03 8.51544362E-04-2.31938704E-04-6.84992793E-03-1.95519001E-03
11 8-2.32442507E-03-7.00738593E-04-1.28433597E-03 8.34687770E-04 1.87586537E-02
11 9 1.53680977E-03 6.62560094E-03 4.11072119E-04 2.10562609E-05 5.46938128E-04
11 10-6.57984247E-03-8.20350942E-02 2.81248702E-02 2.62689102E-02-1.33254766E-02
11 11-2.18630436E-02 6.12729580E-03 2.09181522E-03 3.88324059E-03 5.46087455E-04
11 12 1.91799440E-04-2.83359233E-04 2.54448113E-03 3.72071580E-04-2.36737153E-04
12 1-9.11709735E-03-4.32186239E-03-6.54399548E-04 4.21160971E-04-1.37198438E-02
12 2-2.74594236E-02 1.64965328E-02 1.85710757E-02-2.73751019E-02-2.54182917E-01
12 3 5.40559597E-02 8.63167515E-01 1.16511677E-01-1.18595325E-01-2.12221577E-01
12 4 3.09681955E-02-3.92400654E-02-1.45359505E-02-4.46662644E-03 4.39890715E-03
12 5 1.25869431E-03 1.56199286E-02 3.40822517E-02-7.69329495E-03 3.27251439E-02
12 6 5.50891529E-02-1.43811184E-01-3.69951051E-03-3.59931528E-02 1.76677234E-02
12 7-7.69243849E-04 7.14071958E-04 9.25959247E-04-3.37395954E-04-5.27696518E-04
12 8 8.34372489E-04-1.18864065E-03-8.08704619E-04 4.77855710E-04-1.43892884E-02
12 9-1.31679529E-03-4.84880918E-03 8.81493154E-03-5.00985555E-04 4.13367766E-03
12 10 7.14868227E-02 3.18502205E-02-4.49355587E-01-9.28815006E-03 1.62801193E-02
12 11 1.21433744E-02 1.30464946E-03 2.02401547E-03-8.05831891E-03-1.20229044E-03
12 12-6.01913614E-04 3.87468750E-04 4.29216363E-03-1.43824470E-03-4.98195523E-03
13 1 3.80235209E-02 7.59244463E-03-1.05922728E-02-5.67612813E-02 3.45381250E-02
13 2 2.68145319E-02-8.42458920E-02-3.27653837E-02-6.34227968E-02-1.00296865E-01
13 3 1.24797197E-01 1.16511677E-01 3.54856353E-01-1.60142094E-01-1.29922835E-01
13 4-1.13620902E-01 1.68766403E-02 3.32763539E-02 6.22580263E-03-1.53071914E-02
13 5 1.29973384E-02-1.23377890E-03 1.43874789E-03 4.30906307E-03-1.01944738E-03
13 6 6.06803574E-05-1.43945910E-02-5.09842808E-05-6.76268467E-03 1.54997400E-03
13 7-1.20341502E-03 1.66193931E-04-1.43524366E-03-4.97891242E-03-1.07308888E-03
13 8-3.39873306E-03 3.99557798E-03 2.75150902E-03 3.05217736E-04 7.63963674E-03
13 9 1.18399834E-03 3.03312907E-03 3.39262113E-03 8.10623102E-05 2.56678573E-03
13 10-4.88342346E-03 1.74064458E-03-6.09703188E-03-5.19355406E-02 2.81866950E-02
13 11 5.98504725E-05 5.66557555E-03-2.67389421E-03 2.69521155E-02 8.11163066E-04
13 12-6.18747851E-04 3.14295811E-04-3.79197092E-04-7.27720828E-05 5.72629853E-04
14 1-6.69383800E-02-6.71736526E-03-2.83357962E-03 9.31789730E-03-2.14090509E-02
14 2-5.95958094E-02 6.02939862E-02 3.45216133E-02 5.18752704E-02 9.20698993E-02
14 3-3.19558163E-01-1.18595325E-01-1.60142094E-01 8.76690848E-01-1.27041090E-01
14 4 4.51404512E-02-1.44046289E-01 9.29408814E-02-1.07547855E-02-4.17202560E-03
14 5 4.29805392E-02-7.59713393E-04 3.47091509E-03 3.50166767E-04 3.37681759E-02
14 6-3.70009051E-02-6.47406773E-03-4.53312974E-03-1.14850101E-03 1.98230686E-03
14 7 1.29529800E-03 1.97730556E-04 9.47208798E-04 4.59760893E-03 5.82491561E-04
14 8 2.79839319E-03 1.39222382E-03-6.46242793E-05 9.37244456E-04-8.30787155E-03
14 9-7.43740388E-04-2.78131615E-03-3.88514899E-03 4.88619007E-04-3.02571613E-03
14 10 7.66999257E-04 9.33039080E-03 7.66666572E-03 1.13675915E-02-3.91087560E-01
14 11 1.52237878E-01-4.67376997E-03 6.70166031E-03-3.47914224E-02-8.66348097E-04
14 12-7.04066488E-03 1.35240613E-03 8.49977729E-04 1.00545503E-03-9.30623562E-04
15 1-1.75306402E-01-1.82020657E-02-5.16564535E-03 4.03750440E-02-5.23823521E-02
15 2-1.04669014E-01 9.06151263E-02 5.43054239E-02 7.98488168E-02-1.29411205E-02
15 3-4.39137583E-02-2.12221577E-01-1.29922835E-01-1.27041090E-01 7.70763229E-01
15 4 1.68833586E-01 3.51819956E-02-3.61073237E-01-1.61797634E-02 1.90428531E-02
15 5-2.33218497E-02 1.42151725E-03-4.89073978E-03-2.69051506E-03-1.14477276E-03
15 6-7.17690166E-03 2.42676705E-02 6.44693914E-04 1.03953826E-02-1.03843849E-03
15 7 6.17972309E-03-9.28876300E-04 2.70006350E-03 1.51827899E-02 3.19204924E-03
15 8 7.34426662E-03 1.73895498E-03 1.41282173E-03 4.01456962E-04-1.20183366E-02
15 9-3.39235833E-04-3.71366402E-03-5.15957215E-03 8.67394324E-04-2.83380871E-03
15 10 3.40831510E-02-3.14764199E-02-3.66914299E-03 8.84544603E-03 1.61130447E-01
15 11-1.52421804E-01-1.64950654E-02 2.70753864E-03-1.26520374E-02 2.16554069E-04
15 12-1.39837878E-03 7.73383798E-04 1.02911148E-03-4.86045650E-04-6.28379350E-04
16 1 1.27891378E-01 2.07818110E-02-1.16673331E-02-8.50675314E-02 4.80554047E-02
16 2 9.56355453E-02-6.06605880E-02-4.97115713E-02-5.80262030E-02 7.42246323E-02
16 3-3.58566807E-02 3.09681955E-02-1.13620902E-01 4.51404512E-02 1.68833586E-01
16 4 3.12787550E-01-1.69100971E-01-3.42086965E-01-8.89261434E-02-2.72972438E-03
16 5 4.08554198E-02 1.80510142E-02-2.24942067E-03-1.40416685E-02-1.96260397E-02
16 6 6.35370302E-03-8.53911978E-03 3.48780557E-03-4.70743208E-03 1.49893411E-04
16 7-8.37509124E-03 2.11541746E-03-2.35845821E-03-2.40992731E-02-4.79817925E-03
16 8-1.23007545E-02-1.17633331E-03-6.36314461E-04-1.39429353E-03 8.55673071E-03
16 9 1.70794520E-05 1.91906709E-03 3.24412991E-03-1.18850445E-03 7.84007290E-04
16 10-5.33531081E-04 5.08077251E-03 2.97180387E-03 5.04854981E-03 2.62656771E-03
16 11 1.92676111E-05-1.62194912E-01 1.54531556E-01 9.86833380E-02 1.65474597E-03
16 12-1.48393944E-02 2.39621465E-03 9.33651680E-03 1.11505399E-03 7.19865667E-03
17 1 3.97827921E-02-4.11865482E-02-1.83461149E-03-1.47205751E-02 8.32473837E-03
17 2 1.79905510E-02-5.64072309E-03-9.54553594E-03-1.19555655E-02 1.25799387E-02
17 3 6.46636638E-03-3.92400654E-02 1.68766403E-02-1.44046289E-01 3.51819956E-02
17 4-1.69100971E-01 7.74718661E-01 1.78822375E-02-4.15371017E-02-2.77195813E-01
17 5 6.39241063E-02-1.49907100E-03-4.62281831E-02 4.36537134E-03-2.34709718E-03
17 6 6.09945453E-03 6.29400005E-04 2.91321581E-04-2.25143314E-03 1.14459967E-03
17 7-1.43311663E-02 9.26325219E-04-6.67946056E-03 8.74914865E-03 2.25025944E-03
17 8 4.22923030E-03 2.84387242E-04-6.57936412E-05-1.85699442E-04 2.03371527E-03
17 9 4.09605598E-04 1.97310703E-04 5.05402967E-04-4.25732444E-04 7.68560935E-04
17 10 6.02079544E-03-5.13101530E-03-4.53212145E-04-3.86963178E-03 7.26997291E-03
17 11 3.89087806E-02 1.63911931E-01-2.80741842E-01-1.16745856E-01 3.72965504E-03
17 12 1.80424763E-03-5.43229281E-03-1.71832907E-03-1.45204747E-03-2.69533600E-03
18 1 1.89401227E-01 2.06085837E-02-4.68898520E-02-7.55050054E-02 4.90741209E-02
18 2 1.08656847E-01-8.54626435E-02-6.68612933E-02-9.13987402E-02 1.38931939E-01
18 3-5.93294024E-02-1.45359505E-02 3.32763539E-02 9.29408814E-02-3.61073237E-01
18 4-3.42086965E-01 1.78822375E-02 7.03100014E-01 6.46709125E-02 5.96285834E-02
18 5-1.35127047E-01-8.33112104E-03-1.57475883E-02 1.56575345E-02-1.33549597E-02
18 6 3.94390693E-03-8.72943160E-03 2.13602127E-03-2.44949852E-03 1.20215415E-03
18 7-1.54425204E-02 2.04279193E-03-6.86022700E-03-3.04819949E-02-5.21407746E-03
18 8-1.48614908E-02 4.72189881E-04 2.33564977E-03-1.47665099E-03 1.37927192E-02
18 9 2.66728482E-03 4.33161690E-03 5.43949777E-03-4.41838088E-04 5.03190777E-03
18 10-3.96591660E-03-2.94635996E-03-1.15604723E-03-2.41089682E-04-1.06570976E-02
18 11-9.41609457E-03 1.17455962E-01-1.17949095E-01-1.42675700E-01 5.44698573E-03
18 12 3.38462739E-02-2.35211494E-03 3.85089579E-03-3.37691816E-03-1.42863827E-03
19 1-3.23898426E-02-1.89855913E-02-1.27169844E-03 6.82759612E-03-4.72210764E-03
19 2-9.52440155E-03 7.02048078E-03 6.73208972E-03 7.62781230E-03-1.45384545E-02
19 3 2.70582291E-03-4.46662644E-03 6.22580263E-03-1.07547855E-02-1.61797634E-02
19 4-8.89261434E-02-4.15371017E-02 6.46709125E-02 3.44277271E-01-4.31554441E-02
19 5-3.04892108E-01-1.16568459E-01 1.00650459E-01 1.03928115E-01 4.96977579E-03
19 6 2.01703819E-02 1.04141337E-02-1.92012798E-03-2.19659508E-03 4.15977426E-03
19 7-5.92336299E-04-2.99362477E-04-4.23099739E-04-2.07306108E-03-4.52988244E-03
19 8 9.09427521E-05 6.03554957E-04-1.91604598E-04 3.46753689E-04-1.67432614E-03
19 9-2.76312154E-04-3.27373316E-05-4.48695282E-04 3.49222039E-05-5.28852623E-04
19 10 6.03204409E-04-7.45170736E-05-2.05932129E-04 7.12330807E-03 1.80114040E-03
19 11 1.35772127E-03 5.91135005E-03 1.98265530E-02-1.13374427E-02-1.33568315E-01
19 12-1.45198494E-02 1.60956031E-01 9.13671839E-03-1.06781406E-02-4.68985531E-03
20 1-3.11329682E-02-8.71869422E-03-6.53108126E-03 5.85007903E-03-4.61080698E-03
20 2-6.04323732E-03 1.72921826E-03 4.40287931E-03-4.12547639E-05 7.28135583E-03
20 3-3.41185239E-03 4.39890715E-03-1.53071914E-02-4.17202560E-03 1.90428531E-02
20 4-2.72972438E-03-2.77195813E-01 5.96285834E-02-4.31554441E-02 9.72055618E-01
20 5 2.01438569E-01 8.08444957E-02-5.72944014E-01-2.54948123E-01 1.54629319E-02
20 6 1.04216968E-02-3.44795180E-02-6.51172720E-03 6.93531997E-03 1.28325733E-02
20 7 1.07832125E-03-5.02366367E-04 1.30968638E-04 4.55077225E-04-5.69392406E-04
20 8 1.46691057E-03 4.94345676E-04-5.71275696E-05 2.04900944E-04-8.73966676E-05
20 9 2.31925522E-04 3.10504582E-04 7.99951700E-04-2.36027279E-04 9.33510132E-04
20 10-7.64153915E-04-1.74310213E-03-1.06755184E-04-8.82676384E-04-6.43985381E-04
20 11-2.89072478E-03-1.56116276E-02-2.04101303E-02 1.29321881E-02-1.17645599E-02
20 12-7.94082234E-02 1.73643605E-02 1.39510327E-02-1.94241867E-02-2.56433464E-02
21 1-9.94105646E-03-7.37180837E-03 9.89383899E-04 1.79930774E-03-1.74119085E-04
21 2-2.33619742E-03 8.12762293E-04 3.16012190E-03 3.32266990E-03-8.17159812E-03
21 3-5.58715897E-04 1.25869431E-03 1.29973384E-02 4.29805392E-02-2.33218497E-02
21 4 4.08554198E-02 6.39241063E-02-1.35127047E-01-3.04892108E-01 2.01438569E-01
21 5 8.84103032E-01 1.00634774E-01-2.84218161E-01-3.23047174E-01 1.27561126E-02
21 6-4.38965765E-02-2.44691704E-02 2.93349977E-03 7.41517840E-03-3.98693403E-03
21 7-7.11232711E-04 1.26124996E-04-2.61435630E-04-3.36387625E-03-2.67300112E-03
21 8 1.18361021E-03 2.32843536E-04-4.30107953E-04 4.40907601E-04-1.11369860E-03
21 9-6.83083677E-04-1.61090176E-04-4.77467706E-04 1.12904323E-04-6.19796360E-04
21 10-1.09344448E-03 3.96895583E-05 3.67289749E-04 2.53635511E-03 1.53433175E-04
21 11-6.33150842E-03-5.11004274E-03-1.79005966E-02 9.23275359E-03 1.59936954E-01
21 12 2.27623662E-02-3.93852525E-01-6.21413239E-04 1.57939590E-02 1.26162640E-02
22 1-7.40451128E-03-1.18298311E-03-1.23193423E-03 2.08763248E-03-2.26309275E-03
22 2-3.34670530E-03 3.59183352E-03 4.59531141E-03 1.58197157E-03 7.99509086E-03
22 3-3.64619210E-03 1.56199286E-02-1.23377890E-03-7.59713393E-04 1.42151725E-03
22 4 1.80510142E-02-1.49907100E-03-8.33112104E-03-1.16568459E-01 8.08444957E-02
22 5 1.00634774E-01 2.79707367E-01 9.66384201E-03-2.57049307E-01-1.30094012E-01
22 6-1.94590376E-02 7.19966627E-02 1.16438163E-02 1.07685474E-02 2.52902044E-02
22 7 2.68230528E-04-2.79707363E-04 1.97670056E-04-1.70987999E-04-7.35136380E-04
22 8 5.09332846E-04 9.12921318E-05 2.28470062E-06 5.87637566E-05-7.78413480E-04
22 9-3.45755428E-04 1.03082942E-04 4.56229475E-04-2.32914216E-04 3.75419982E-04
22 10 1.01101799E-03-1.63012737E-03 9.43773240E-05-6.03581644E-04-4.26218913E-04
22 11-6.66418070E-04-7.55730172E-04-1.83686505E-03 1.44329588E-03 1.00177350E-02
22 12 1.69027532E-02 9.33789419E-03-7.73135246E-02-8.84802112E-02 4.19601664E-02
23 1 9.20314716E-03 1.42345777E-05 1.66408721E-03-2.31581316E-03 1.94780086E-03
23 2 2.19994129E-03-4.03254872E-04-1.18598453E-03-1.43409710E-03-1.50724629E-02
23 3-1.30773556E-03 3.40822517E-02 1.43874789E-03 3.47091509E-03-4.89073978E-03
23 4-2.24942067E-03-4.62281831E-02-1.57475883E-02 1.00650459E-01-5.72944014E-01
23 5-2.84218161E-01 9.66384201E-03 1.16226427E + 00 1.51461574E-01-2.55425538E-02
23 6-1.38009288E-01 4.34490838E-02 2.55342515E-02 1.35557671E-03-5.72590887E-02
23 7-7.97707545E-04 1.47467441E-04-3.85865591E-05-3.97525042E-05-2.28107561E-04
23 8 8.50741423E-05-1.38062031E-04 1.36169280E-04 2.92530497E-05-5.21093710E-04
23 9-4.18293856E-05-3.63889181E-04 1.47241298E-04 2.69501166E-04-1.53484405E-04
23 10-1.26586173E-03-6.38649016E-03 3.13714988E-04-4.73622853E-04 8.33768552E-04
23 11-4.51501614E-04-6.28847207E-04-3.16267144E-03 3.34956815E-03-4.51958953E-03
23 12 7.74587830E-03 8.88591513E-03-9.26694939E-02-4.08690902E-01 1.19036698E-01
24 1 3.99662881E-03 6.43995526E-05 1.39021884E-03-4.02962239E-04 1.10775010E-04
24 2 7.37622519E-04 1.14758772E-03 1.57395708E-04 3.27549904E-04 4.05050522E-03
24 3 2.85531332E-03-7.69329495E-03 4.30906307E-03 3.50166767E-04-2.69051506E-03
24 4-1.40416685E-02 4.36537134E-03 1.56575345E-02 1.03928115E-01-2.54948123E-01
24 5-3.23047174E-01-2.57049307E-01 1.51461574E-01 7.07356446E-01 7.15142299E-02
24 6 4.33958989E-02-2.30127454E-01 2.91471608E-02-3.18152579E-02-4.23039086E-02
24 7-4.84390566E-04-2.07043152E-04 1.04930181E-04 6.86053107E-04-3.70192565E-04
24 8 4.06976181E-04-1.82145647E-04 9.29485384E-05 1.19471668E-04 1.83212850E-04
24 9 3.66587516E-04-4.69677040E-04-7.22616229E-05 4.90443106E-05 1.54648261E-05
24 10 1.44133156E-03 3.91277143E-04 1.02546379E-03 8.94474451E-04-2.68148822E-04
24 11 7.59986373E-04 2.25049952E-03 4.06300831E-03-1.00363955E-03 7.76109591E-03
24 12-3.56334371E-02-5.20252187E-03 4.09229277E-02 1.15518281E-01-1.15364194E-01
25 1 1.13454494E-02 1.70880713E-04-1.82412613E-03-2.58876587E-03 6.39386568E-03
25 2 9.12188848E-03-2.71179182E-02-2.13318806E-02-1.10638093E-02-7.94862886E-02
25 3-5.64429849E-02 3.27251439E-02-1.01944738E-03 3.37681759E-02-1.14477276E-03
25 4-1.96260397E-02-2.34709718E-03-1.33549597E-02 4.96977579E-03 1.54629319E-02
25 5 1.27561126E-02-1.30094012E-01-2.55425538E-02 7.15142299E-02 3.43306053E-01
25 6-7.54853427E-02-2.30187142E-01-1.08563309E-01 1.30138432E-01 1.12726411E-01
25 7-9.62123853E-04 7.86576724E-05-9.73635617E-05-9.06950936E-04-6.43726235E-04
25 8-1.83405283E-04 2.77456739E-04-2.18680940E-04 6.82719116E-04-3.57626327E-03
25 9-4.62541547E-03-1.67625301E-03-3.20268442E-04 5.06895138E-04-1.97674922E-04
25 10-9.95369323E-04-6.51158766E-03-2.67418053E-04 2.47827075E-03 5.96007218E-03
25 11 6.22534381E-03-6.71666190E-05-5.32602029E-04 3.92669084E-04 1.34475207E-02
25 12-2.00207370E-03 7.20451716E-03-4.99755400E-04 3.20375638E-03 6.64879088E-03
26 1-7.48626611E-04-1.01693599E-03 3.69423953E-04-2.62934864E-04 1.58638514E-03
26 2 5.48285594E-03-2.44222457E-02-9.28945222E-03-9.70480872E-03-2.13401145E-02
26 3-2.20139122E-01 5.50891529E-02 6.06803574E-05-3.70009051E-02-7.17690166E-03
26 4 6.35370302E-03 6.09945453E-03 3.94390693E-03 2.01703819E-02 1.04216968E-02
26 5-4.38965765E-02-1.94590376E-02-1.38009288E-01 4.33958989E-02-7.54853427E-02
26 6 1.04349198E + 00 3.20742808E-01 1.33451074E-01-6.57351404E-01-3.97218079E-01
26 7 5.10452564E-04-5.84471008E-04 2.86484615E-04 1.49212633E-03 6.69967463E-04
26 8 5.03559041E-04-2.32334453E-04-1.73999284E-04-1.24472558E-04 2.43789236E-03
26 9 4.61899450E-04 2.00664292E-03 5.63425155E-04-2.67819735E-04 9.49828491E-04
26 10-2.16253183E-03 2.37533264E-03-4.73669933E-03-1.83140618E-03-3.91454663E-04
26 11-5.52914061E-04-5.62385673E-04-6.49601693E-04 1.21740841E-03-2.02154623E-03
26 12-6.24322356E-03-1.03238908E-03-1.65121984E-02 6.01060652E-03 3.04549186E-02
27 1 6.19384063E-03 1.47827889E-03-4.00294029E-03-2.63757982E-03 3.79932253E-03
27 2 5.46537588E-03-1.28749808E-02-1.39971657E-02-5.03611849E-03 4.66217685E-02
27 3 4.64285476E-02-1.43811184E-01-1.43945910E-02-6.47406773E-03 2.42676705E-02
27 4-8.53911978E-03 6.29400005E-04-8.72943160E-03 1.04141337E-02-3.44795180E-02
27 5-2.44691704E-02 7.19966627E-02 4.34490838E-02-2.30127454E-01-2.30187142E-01
27 6 3.20742808E-01 7.77315139E-01 1.12352869E-01-3.95090342E-01-3.83840912E-01
27 7-2.28762929E-04 6.51603906E-04-3.24181316E-04-2.26808482E-03-5.74937317E-04
27 8-1.26409512E-03 4.15305458E-04-1.61261766E-04-1.64966969E-04-1.54926412E-03
27 9-1.94382359E-03 1.92634373E-03-2.73163856E-04 7.49165813E-05-6.21905622E-05
27 10 6.02893293E-03 3.84129813E-02-3.57399454E-03 5.94267762E-03-9.31062016E-04
27 11-1.88388157E-03 1.20166570E-03 2.43213783E-03-7.44297817E-04 7.82362145E-03
27 12 1.43962451E-03 2.02164712E-03 3.96105118E-03-5.88562129E-03-2.95978166E-03
28 1-2.27595789E-03 2.38016243E-04-1.90990296E-04 2.06368591E-04-1.09784256E-03
28 2-8.91602677E-04 5.94767573E-04 4.65554733E-04-4.42386760E-04 2.07423359E-02
28 3-2.91895755E-03-3.69951051E-03-5.09842808E-05-4.53312974E-03 6.44693914E-04
28 4 3.48780557E-03 2.91321581E-04 2.13602127E-03-1.92012798E-03-6.51172720E-03
28 5 2.93349977E-03 1.16438163E-02 2.55342515E-02 2.91471608E-02-1.08563309E-01
28 6 1.33451074E-01 1.12352869E-01 7.83875213E-02-1.45935717E-01-1.37104947E-01
28 7 2.93117403E-04-1.36402032E-05 1.69282216E-05-1.24837042E-05 3.80796713E-05
28 8-6.91863366E-05 5.51028927E-05-1.17800860E-05-1.94392064E-04 8.16071409E-06
28 9 1.45195861E-06 6.32639526E-04 2.67971807E-04 2.28459355E-05 2.63509654E-04
28 10-9.59547960E-04 3.04657215E-04-5.90468215E-04 1.42262736E-06-8.37956113E-04
28 11-1.10569514E-03 1.54505443E-05 2.28312791E-04-2.48911897E-04-2.07250034E-03
28 12 1.34503875E-03-9.23694360E-04 1.51151645E-04-5.93199239E-05-2.66679943E-03
29 1 3.33440243E-03 5.37351559E-04 6.37899853E-04-1.74091942E-03 7.91851831E-04
29 2 1.69005267E-04 5.56670705E-03-1.33996153E-03 9.67762702E-04 6.18560866E-03
29 3-6.64844183E-02-3.59931528E-02-6.76268467E-03-1.14850101E-03 1.03953826E-02
29 4-4.70743208E-03-2.25143314E-03-2.44949852E-03-2.19659508E-03 6.93531997E-03
29 5 7.41517840E-03 1.07685474E-02 1.35557671E-03-3.18152579E-02 1.30138432E-01
29 6-6.57351404E-01-3.95090342E-01-1.45935717E-01 7.14122967E-01 4.49876970E-01
29 7-2.75944035E-04 2.37619809E-04-1.67788862E-04-5.99154771E-04-2.39870057E-04
29 8-3.76130785E-04 2.24801329E-04 2.99717899E-04 4.37305653E-05-4.06664025E-04
29 9-5.88742322E-05-2.80354729E-04-1.29397573E-04 1.82337202E-04-2.60124864E-04
29 10 1.41153897E-03 5.14650230E-03-1.21153065E-03 2.86273829E-03-1.18576424E-03
29 11-1.05847940E-03 6.78685404E-04 6.15943966E-04-3.25697969E-05 8.82939072E-04
29 12 1.97927506E-04-3.19072279E-04 7.00935022E-04-3.63018808E-04-4.52141743E-04
30 1-1.06466560E-03-3.40923750E-04 1.32604099E-03 4.44235747E-04-1.07527392E-03