!File created by the GAMESS Input Deck Generator Plugin for Avogadro
 $BASIS GBASIS=STO NGAUSS=3 $END
 $CONTRL SCFTYP=RHF RUNTYP=SADPOINT $END
 $STATPT hssend=.t. OPTTOL=0.0005 NSTEP=50 $END
 $STATPT HESS=calc ihrep=5 $END
 $FORCE nvib=2 $END
 $ZMAT DLC=.t. auto=.t. nonvdw(1)=1,6,3,4,4,5,6,1,2,2,3 $END
!$ZMAT IFZMAT(1)=1,1,6,1,3,4 fvalue(1)=2.00,2.00 $END

 $DATA 
Title
C1
C     6.0     3.94575429    -1.32235384    -3.26269293
C     6.0     3.01813674    -1.34701550    -2.20636821
C     6.0     2.97997212    -0.26471829    -1.31158113
C     6.0     4.73142385    -0.12977125    -0.50694889
C     6.0     5.51344156    -1.14357781    -1.08636141
C     6.0     5.69314337    -1.06323647    -2.48039198
C     6.0     6.01861048     0.32289714    -2.99097204
C     6.0     5.75322151     1.40370643    -2.28737926
C     6.0     5.08783388     1.30625582    -0.93299592
O     8.0     4.84791470     2.28004503    -0.23320767
H     1.0     4.04431057    -2.22785139    -3.85305333
H     1.0     3.96623158    -0.43097827    -3.87875414
H     1.0     2.74619341    -2.31963563    -1.81265330
H     1.0     2.95112729     0.72726798    -1.74776220
H     1.0     2.32426620    -0.35013139    -0.45132503
H     1.0     4.52067900    -0.20866728     0.55607355
H     1.0     5.56126642    -2.11273551    -0.60510767
H     1.0     6.27088881    -1.85093188    -2.95534897
H     1.0     6.48451900     0.38799152    -3.96826196
H     1.0     6.01120472     2.39583731    -2.63367414
 $END
