!   File created by the GAMESS Input Deck Generator Plugin for Avogadro
 $BASIS GBASIS=STO NGAUSS=3 $END
 $CONTRL SCFTYP=RHF RUNTYP=ENERGY $END

 $DATA 
Title
C1
C     6,0     3,92156    -1,22487    -1,99688
C     6,0     3,04938    -1,06289    -0,93891
C     6,0     2,87392     0,29178    -0,35756
C     6,0     4,75551     0,75519     0,13132
C     6,0     5,57818    -0,36820    -0,41989
C     6,0     5,71562    -0,36293    -1,77078
C     6,0     6,27175     1,04243    -2,19258
C     6,0     5,84438     2,20389    -1,66290
C     6,0     4,89427     2,10338    -0,54201
O     8,0     4,24954     3,08886    -0,19312
H     1,0     3,74300    -2,26707    -2,33221
H     1,0     3,81241    -0,48065    -2,78860
H     1,0     2,66092    -1,88584    -0,32867
H     1,0     2,56107     1,03153    -1,09566
H     1,0     2,37813     0,37786     0,61154
H     1,0     4,76846     0,78655     1,21353
H     1,0     5,47585    -1,36715     0,01060
H     1,0     6,47311    -1,10243    -2,10474
H     1,0     7,17086     1,12723    -2,82266
H     1,0     6,18325     3,20096    -1,93719
 $END
