!File created by the GAMESS Input Deck Generator Plugin for Avogadro
 $BASIS GBASIS=STO NGAUSS=3 $END
 $CONTRL SCFTYP=RHF RUNTYP=OPTIMIZE NZVAR=1 mult=1  ICHARG=0 $END
 $STATPT hssend=.t. OPTTOL=0.0005 NSTEP=50 $END
 $STATPT HESS=calc ihrep=5 $END
 $FORCE nvib=2 $END
 $ZMAT DLC=.t. auto=.t. nonvdw(1)=1,6,3,4 $END
 $ZMAT IFZMAT(1)=1,1,6,1,3,4 fvalue(1)=2.00,2.00 $END

 $DATA 
Title
C1
C     6.0     3.76425    -1.60085    -3.01458
C     6.0     2.93256    -1.44332    -1.91953
C     6.0     2.92687    -0.08053    -1.41342
C     6.0     4.77405    -0.15038    -0.65388
C     6.0     5.53768    -1.20829    -1.39666
C     6.0     5.64223    -0.96469    -2.72864
C     6.0     6.35891     0.48653    -2.84762
C     6.0     6.03258     1.53786    -2.06919
C     6.0     5.11560     1.27821    -0.94825
O     8.0     4.60028     2.20894    -0.33548
H     1.0     3.32004    -2.56363    -3.35240
H     1.0     3.56997    -0.83752    -3.78912
H     1.0     2.59444    -2.21327    -1.20993
H     1.0     2.94162     0.62629    -2.24606
H     1.0     2.32157     0.21175    -0.56230
H     1.0     4.61728    -0.41704     0.38010
H     1.0     5.37200    -2.26622    -1.17428
H     1.0     6.49271    -1.61048    -3.10234
H     1.0     7.26672     0.63597    -3.46570
H     1.0     6.40693     2.55531    -2.15690
 $END
