!   File created by the GAMESS Input Deck Generator Plugin for Avogadro
 $BASIS GBASIS=STO NGAUSS=3 $END
 $CONTRL SCFTYP=RHF RUNTYP=ENERGY $END

 $DATA 
Title
C1
C     6,0     3,25816    -1,84026    -2,24896
C     6,0     2,55939    -1,23035    -1,25770
C     6,0     2,90706     0,17649    -0,85433
C     6,0     4,85880     0,13959    -0,42692
C     6,0     5,20921    -1,32001    -0,51505
C     6,0     5,20093    -1,86233    -1,76356
C     6,0     5,88258    -1,05204    -2,80174
C     6,0     6,03239     0,27750    -2,71107
C     6,0     5,49514     0,98134    -1,51812
O     8,0     5,54017     2,20881    -1,46667
H     1,0     3,04498    -2,89230    -2,45459
H     1,0     3,51963    -1,21163    -3,10732
H     1,0     1,99520    -1,82958    -0,54753
H     1,0     2,78049     0,92989    -1,63552
H     1,0     2,44820     0,46991     0,09352
H     1,0     4,96087     0,58238     0,56616
H     1,0     5,05448    -1,94532     0,35871
H     1,0     5,32318    -2,94721    -1,85965
H     1,0     6,27741    -1,59272    -3,65796
H     1,0     6,52485     0,87576    -3,46543
 $END
