!File created by the GAMESS Input Deck Generator Plugin for Avogadro
 $BASIS GBASIS=STO NGAUSS=3 $END
 $CONTRL SCFTYP=RHF RUNTYP=OPTIMIZE NZVAR=1 mult=1  ICHARG=0 $END
 $STATPT hssend=.t. OPTTOL=0.0005 NSTEP=50 $END
 $STATPT HESS=calc ihrep=5 $END
 $FORCE nvib=2 $END
 $ZMAT DLC=.t. auto=.t. nonvdw(1)=1,6,3,4 $SEND
 $ZMAT IFZMAT(1)=1,1,6,1,3,4 fvalue(1)=2.00,2.00 $END


 $DATA 
Title
C1
C     6.0     3.75100    -1.36070    -1.74264
C     6.0     2.75468    -1.52827    -0.83580
C     6.0     2.61472    -0.56062     0.30712
C     6.0     4.39679    -0.54957     1.21126
C     6.0     5.15925    -1.63172     0.49766
C     6.0     5.51227    -1.36435    -0.78956
C     6.0     6.09828    -0.01985    -1.00912
C     6.0     5.84618     1.02796   -0.21098
C     6.0     4.93607     0.84478     0.94883
O     8.0     4.61374     1.81827    1.62677
H     1.0     3.88416    -2.13171    -2.50578
H     1.0     3.95991    -0.32736    -2.04079
H     1.0     2.27867   -2.49988     -0.72975
H     1.0     2.41318     0.47393     0.01887
H     1.0     1.93903     -0.92078     1.08730
H     1.0     4.20251     -0.73907    2.26906
H     1.0     5.04646   -2.65593     0.83617
H     1.0     5.95316    -2.17090    -1.38645
H     1.0     6.77122    0.08427    -1.85629
H     1.0     6.26933     2.01130    -0.36437
 $END
